(set-logic QF_LRA)
(declare-fun T1 () Real )
(declare-fun T2 () Real )
(declare-fun T3 () Real )
(declare-fun T4 () Real )
(declare-fun T5 () Real )
(declare-fun T6 () Real )
(declare-fun T7 () Real )
(declare-fun T8 () Real )
(declare-fun T9 () Real )
(declare-fun T10 () Real )
(declare-fun Z () Real )
(assert ( and 
(or ( <= ( + T1 56 ) T2 ) ( <= ( + T2 92 ) T1 ) )
(or ( <= ( + T1 139 )  ( + T2 92 ) ) ( <= ( + T2 126 )( + T1 56 ) ) )
(or ( <= ( + T1 156 )  ( + T2 126 ) ) ( <= ( + T2 175 )( + T1 139 ) ) )
(or ( <= ( + T1 223 )  ( + T2 175 ) ) ( <= ( + T2 262 )( + T1 156 ) ) )
(or ( <= ( + T1 241 )  ( + T2 262 ) ) ( <= ( + T2 266 )( + T1 223 ) ) )
(or ( <= ( + T1 297 )  ( + T2 266 ) ) ( <= ( + T2 342 )( + T1 241 ) ) )
(or ( <= ( + T1 349 )  ( + T2 342 ) ) ( <= ( + T2 388 )( + T1 297 ) ) )
(or ( <= ( + T1 409 )  ( + T2 388 ) ) ( <= ( + T2 412 )( + T1 349 ) ) )
(or ( <= ( + T1 56 ) T3 ) ( <= ( + T3 88 ) T1 ) )
(or ( <= ( + T1 139 )  ( + T3 88 ) ) ( <= ( + T3 179 )( + T1 56 ) ) )
(or ( <= ( + T1 156 )  ( + T3 179 ) ) ( <= ( + T3 189 )( + T1 139 ) ) )
(or ( <= ( + T1 223 )  ( + T3 189 ) ) ( <= ( + T3 199 )( + T1 156 ) ) )
(or ( <= ( + T1 241 )  ( + T3 199 ) ) ( <= ( + T3 203 )( + T1 223 ) ) )
(or ( <= ( + T1 297 )  ( + T3 203 ) ) ( <= ( + T3 209 )( + T1 241 ) ) )
(or ( <= ( + T1 349 )  ( + T3 209 ) ) ( <= ( + T3 263 )( + T1 297 ) ) )
(or ( <= ( + T1 409 )  ( + T3 263 ) ) ( <= ( + T3 339 )( + T1 349 ) ) )
(or ( <= ( + T1 56 ) T4 ) ( <= ( + T4 50 ) T1 ) )
(or ( <= ( + T1 139 )  ( + T4 50 ) ) ( <= ( + T4 61 )( + T1 56 ) ) )
(or ( <= ( + T1 156 )  ( + T4 61 ) ) ( <= ( + T4 156 )( + T1 139 ) ) )
(or ( <= ( + T1 223 )  ( + T4 156 ) ) ( <= ( + T4 177 )( + T1 156 ) ) )
(or ( <= ( + T1 241 )  ( + T4 177 ) ) ( <= ( + T4 247 )( + T1 223 ) ) )
(or ( <= ( + T1 297 )  ( + T4 247 ) ) ( <= ( + T4 337 )( + T1 241 ) ) )
(or ( <= ( + T1 349 )  ( + T4 337 ) ) ( <= ( + T4 433 )( + T1 297 ) ) )
(or ( <= ( + T1 409 )  ( + T4 433 ) ) ( <= ( + T4 459 )( + T1 349 ) ) )
(or ( <= ( + T1 56 ) T5 ) ( <= ( + T5 72 ) T1 ) )
(or ( <= ( + T1 139 )  ( + T5 72 ) ) ( <= ( + T5 136 )( + T1 56 ) ) )
(or ( <= ( + T1 156 )  ( + T5 136 ) ) ( <= ( + T5 180 )( + T1 139 ) ) )
(or ( <= ( + T1 223 )  ( + T5 180 ) ) ( <= ( + T5 221 )( + T1 156 ) ) )
(or ( <= ( + T1 241 )  ( + T5 221 ) ) ( <= ( + T5 240 )( + T1 223 ) ) )
(or ( <= ( + T1 297 )  ( + T5 240 ) ) ( <= ( + T5 288 )( + T1 241 ) ) )
(or ( <= ( + T1 349 )  ( + T5 288 ) ) ( <= ( + T5 289 )( + T1 297 ) ) )
(or ( <= ( + T1 409 )  ( + T5 289 ) ) ( <= ( + T5 300 )( + T1 349 ) ) )
(or ( <= ( + T1 56 ) T6 ) ( <= ( + T6 81 ) T1 ) )
(or ( <= ( + T1 139 )  ( + T6 81 ) ) ( <= ( + T6 82 )( + T1 56 ) ) )
(or ( <= ( + T1 156 )  ( + T6 82 ) ) ( <= ( + T6 131 )( + T1 139 ) ) )
(or ( <= ( + T1 223 )  ( + T6 131 ) ) ( <= ( + T6 215 )( + T1 156 ) ) )
(or ( <= ( + T1 241 )  ( + T6 215 ) ) ( <= ( + T6 291 )( + T1 223 ) ) )
(or ( <= ( + T1 297 )  ( + T6 291 ) ) ( <= ( + T6 385 )( + T1 241 ) ) )
(or ( <= ( + T1 349 )  ( + T6 385 ) ) ( <= ( + T6 444 )( + T1 297 ) ) )
(or ( <= ( + T1 409 )  ( + T6 444 ) ) ( <= ( + T6 508 )( + T1 349 ) ) )
(or ( <= ( + T1 56 ) T7 ) ( <= ( + T7 36 ) T1 ) )
(or ( <= ( + T1 139 )  ( + T7 36 ) ) ( <= ( + T7 105 )( + T1 56 ) ) )
(or ( <= ( + T1 156 )  ( + T7 105 ) ) ( <= ( + T7 178 )( + T1 139 ) ) )
(or ( <= ( + T1 223 )  ( + T7 178 ) ) ( <= ( + T7 217 )( + T1 156 ) ) )
(or ( <= ( + T1 241 )  ( + T7 217 ) ) ( <= ( + T7 243 )( + T1 223 ) ) )
(or ( <= ( + T1 297 )  ( + T7 243 ) ) ( <= ( + T7 321 )( + T1 241 ) ) )
(or ( <= ( + T1 349 )  ( + T7 321 ) ) ( <= ( + T7 388 )( + T1 297 ) ) )
(or ( <= ( + T1 409 )  ( + T7 388 ) ) ( <= ( + T7 415 )( + T1 349 ) ) )
(or ( <= ( + T1 56 ) T8 ) ( <= ( + T8 88 ) T1 ) )
(or ( <= ( + T1 139 )  ( + T8 88 ) ) ( <= ( + T8 101 )( + T1 56 ) ) )
(or ( <= ( + T1 156 )  ( + T8 101 ) ) ( <= ( + T8 148 )( + T1 139 ) ) )
(or ( <= ( + T1 223 )  ( + T8 148 ) ) ( <= ( + T8 205 )( + T1 156 ) ) )
(or ( <= ( + T1 241 )  ( + T8 205 ) ) ( <= ( + T8 207 )( + T1 223 ) ) )
(or ( <= ( + T1 297 )  ( + T8 207 ) ) ( <= ( + T8 301 )( + T1 241 ) ) )
(or ( <= ( + T1 349 )  ( + T8 301 ) ) ( <= ( + T8 335 )( + T1 297 ) ) )
(or ( <= ( + T1 409 )  ( + T8 335 ) ) ( <= ( + T8 360 )( + T1 349 ) ) )
(or ( <= ( + T1 56 ) T9 ) ( <= ( + T9 10 ) T1 ) )
(or ( <= ( + T1 139 )  ( + T9 10 ) ) ( <= ( + T9 40 )( + T1 56 ) ) )
(or ( <= ( + T1 156 )  ( + T9 40 ) ) ( <= ( + T9 106 )( + T1 139 ) ) )
(or ( <= ( + T1 223 )  ( + T9 106 ) ) ( <= ( + T9 186 )( + T1 156 ) ) )
(or ( <= ( + T1 241 )  ( + T9 186 ) ) ( <= ( + T9 263 )( + T1 223 ) ) )
(or ( <= ( + T1 297 )  ( + T9 263 ) ) ( <= ( + T9 329 )( + T1 241 ) ) )
(or ( <= ( + T1 349 )  ( + T9 329 ) ) ( <= ( + T9 371 )( + T1 297 ) ) )
(or ( <= ( + T1 409 )  ( + T9 371 ) ) ( <= ( + T9 380 )( + T1 349 ) ) )
(or ( <= ( + T1 56 ) T10 ) ( <= ( + T10 66 ) T1 ) )
(or ( <= ( + T1 139 )  ( + T10 66 ) ) ( <= ( + T10 157 )( + T1 56 ) ) )
(or ( <= ( + T1 156 )  ( + T10 157 ) ) ( <= ( + T10 249 )( + T1 139 ) ) )
(or ( <= ( + T1 223 )  ( + T10 249 ) ) ( <= ( + T10 343 )( + T1 156 ) ) )
(or ( <= ( + T1 241 )  ( + T10 343 ) ) ( <= ( + T10 427 )( + T1 223 ) ) )
(or ( <= ( + T1 297 )  ( + T10 427 ) ) ( <= ( + T10 430 )( + T1 241 ) ) )
(or ( <= ( + T1 349 )  ( + T10 430 ) ) ( <= ( + T10 439 )( + T1 297 ) ) )
(or ( <= ( + T1 409 )  ( + T10 439 ) ) ( <= ( + T10 459 )( + T1 349 ) ) )
(or ( <= ( + T2 92 ) T3 ) ( <= ( + T3 88 ) T2 ) )
(or ( <= ( + T2 126 )  ( + T3 88 ) ) ( <= ( + T3 179 )( + T2 92 ) ) )
(or ( <= ( + T2 175 )  ( + T3 179 ) ) ( <= ( + T3 189 )( + T2 126 ) ) )
(or ( <= ( + T2 262 )  ( + T3 189 ) ) ( <= ( + T3 199 )( + T2 175 ) ) )
(or ( <= ( + T2 266 )  ( + T3 199 ) ) ( <= ( + T3 203 )( + T2 262 ) ) )
(or ( <= ( + T2 342 )  ( + T3 203 ) ) ( <= ( + T3 209 )( + T2 266 ) ) )
(or ( <= ( + T2 388 )  ( + T3 209 ) ) ( <= ( + T3 263 )( + T2 342 ) ) )
(or ( <= ( + T2 412 )  ( + T3 263 ) ) ( <= ( + T3 339 )( + T2 388 ) ) )
(or ( <= ( + T2 92 ) T4 ) ( <= ( + T4 50 ) T2 ) )
(or ( <= ( + T2 126 )  ( + T4 50 ) ) ( <= ( + T4 61 )( + T2 92 ) ) )
(or ( <= ( + T2 175 )  ( + T4 61 ) ) ( <= ( + T4 156 )( + T2 126 ) ) )
(or ( <= ( + T2 262 )  ( + T4 156 ) ) ( <= ( + T4 177 )( + T2 175 ) ) )
(or ( <= ( + T2 266 )  ( + T4 177 ) ) ( <= ( + T4 247 )( + T2 262 ) ) )
(or ( <= ( + T2 342 )  ( + T4 247 ) ) ( <= ( + T4 337 )( + T2 266 ) ) )
(or ( <= ( + T2 388 )  ( + T4 337 ) ) ( <= ( + T4 433 )( + T2 342 ) ) )
(or ( <= ( + T2 412 )  ( + T4 433 ) ) ( <= ( + T4 459 )( + T2 388 ) ) )
(or ( <= ( + T2 92 ) T5 ) ( <= ( + T5 72 ) T2 ) )
(or ( <= ( + T2 126 )  ( + T5 72 ) ) ( <= ( + T5 136 )( + T2 92 ) ) )
(or ( <= ( + T2 175 )  ( + T5 136 ) ) ( <= ( + T5 180 )( + T2 126 ) ) )
(or ( <= ( + T2 262 )  ( + T5 180 ) ) ( <= ( + T5 221 )( + T2 175 ) ) )
(or ( <= ( + T2 266 )  ( + T5 221 ) ) ( <= ( + T5 240 )( + T2 262 ) ) )
(or ( <= ( + T2 342 )  ( + T5 240 ) ) ( <= ( + T5 288 )( + T2 266 ) ) )
(or ( <= ( + T2 388 )  ( + T5 288 ) ) ( <= ( + T5 289 )( + T2 342 ) ) )
(or ( <= ( + T2 412 )  ( + T5 289 ) ) ( <= ( + T5 300 )( + T2 388 ) ) )
(or ( <= ( + T2 92 ) T6 ) ( <= ( + T6 81 ) T2 ) )
(or ( <= ( + T2 126 )  ( + T6 81 ) ) ( <= ( + T6 82 )( + T2 92 ) ) )
(or ( <= ( + T2 175 )  ( + T6 82 ) ) ( <= ( + T6 131 )( + T2 126 ) ) )
(or ( <= ( + T2 262 )  ( + T6 131 ) ) ( <= ( + T6 215 )( + T2 175 ) ) )
(or ( <= ( + T2 266 )  ( + T6 215 ) ) ( <= ( + T6 291 )( + T2 262 ) ) )
(or ( <= ( + T2 342 )  ( + T6 291 ) ) ( <= ( + T6 385 )( + T2 266 ) ) )
(or ( <= ( + T2 388 )  ( + T6 385 ) ) ( <= ( + T6 444 )( + T2 342 ) ) )
(or ( <= ( + T2 412 )  ( + T6 444 ) ) ( <= ( + T6 508 )( + T2 388 ) ) )
(or ( <= ( + T2 92 ) T7 ) ( <= ( + T7 36 ) T2 ) )
(or ( <= ( + T2 126 )  ( + T7 36 ) ) ( <= ( + T7 105 )( + T2 92 ) ) )
(or ( <= ( + T2 175 )  ( + T7 105 ) ) ( <= ( + T7 178 )( + T2 126 ) ) )
(or ( <= ( + T2 262 )  ( + T7 178 ) ) ( <= ( + T7 217 )( + T2 175 ) ) )
(or ( <= ( + T2 266 )  ( + T7 217 ) ) ( <= ( + T7 243 )( + T2 262 ) ) )
(or ( <= ( + T2 342 )  ( + T7 243 ) ) ( <= ( + T7 321 )( + T2 266 ) ) )
(or ( <= ( + T2 388 )  ( + T7 321 ) ) ( <= ( + T7 388 )( + T2 342 ) ) )
(or ( <= ( + T2 412 )  ( + T7 388 ) ) ( <= ( + T7 415 )( + T2 388 ) ) )
(or ( <= ( + T2 92 ) T8 ) ( <= ( + T8 88 ) T2 ) )
(or ( <= ( + T2 126 )  ( + T8 88 ) ) ( <= ( + T8 101 )( + T2 92 ) ) )
(or ( <= ( + T2 175 )  ( + T8 101 ) ) ( <= ( + T8 148 )( + T2 126 ) ) )
(or ( <= ( + T2 262 )  ( + T8 148 ) ) ( <= ( + T8 205 )( + T2 175 ) ) )
(or ( <= ( + T2 266 )  ( + T8 205 ) ) ( <= ( + T8 207 )( + T2 262 ) ) )
(or ( <= ( + T2 342 )  ( + T8 207 ) ) ( <= ( + T8 301 )( + T2 266 ) ) )
(or ( <= ( + T2 388 )  ( + T8 301 ) ) ( <= ( + T8 335 )( + T2 342 ) ) )
(or ( <= ( + T2 412 )  ( + T8 335 ) ) ( <= ( + T8 360 )( + T2 388 ) ) )
(or ( <= ( + T2 92 ) T9 ) ( <= ( + T9 10 ) T2 ) )
(or ( <= ( + T2 126 )  ( + T9 10 ) ) ( <= ( + T9 40 )( + T2 92 ) ) )
(or ( <= ( + T2 175 )  ( + T9 40 ) ) ( <= ( + T9 106 )( + T2 126 ) ) )
(or ( <= ( + T2 262 )  ( + T9 106 ) ) ( <= ( + T9 186 )( + T2 175 ) ) )
(or ( <= ( + T2 266 )  ( + T9 186 ) ) ( <= ( + T9 263 )( + T2 262 ) ) )
(or ( <= ( + T2 342 )  ( + T9 263 ) ) ( <= ( + T9 329 )( + T2 266 ) ) )
(or ( <= ( + T2 388 )  ( + T9 329 ) ) ( <= ( + T9 371 )( + T2 342 ) ) )
(or ( <= ( + T2 412 )  ( + T9 371 ) ) ( <= ( + T9 380 )( + T2 388 ) ) )
(or ( <= ( + T2 92 ) T10 ) ( <= ( + T10 66 ) T2 ) )
(or ( <= ( + T2 126 )  ( + T10 66 ) ) ( <= ( + T10 157 )( + T2 92 ) ) )
(or ( <= ( + T2 175 )  ( + T10 157 ) ) ( <= ( + T10 249 )( + T2 126 ) ) )
(or ( <= ( + T2 262 )  ( + T10 249 ) ) ( <= ( + T10 343 )( + T2 175 ) ) )
(or ( <= ( + T2 266 )  ( + T10 343 ) ) ( <= ( + T10 427 )( + T2 262 ) ) )
(or ( <= ( + T2 342 )  ( + T10 427 ) ) ( <= ( + T10 430 )( + T2 266 ) ) )
(or ( <= ( + T2 388 )  ( + T10 430 ) ) ( <= ( + T10 439 )( + T2 342 ) ) )
(or ( <= ( + T2 412 )  ( + T10 439 ) ) ( <= ( + T10 459 )( + T2 388 ) ) )
(or ( <= ( + T3 88 ) T4 ) ( <= ( + T4 50 ) T3 ) )
(or ( <= ( + T3 179 )  ( + T4 50 ) ) ( <= ( + T4 61 )( + T3 88 ) ) )
(or ( <= ( + T3 189 )  ( + T4 61 ) ) ( <= ( + T4 156 )( + T3 179 ) ) )
(or ( <= ( + T3 199 )  ( + T4 156 ) ) ( <= ( + T4 177 )( + T3 189 ) ) )
(or ( <= ( + T3 203 )  ( + T4 177 ) ) ( <= ( + T4 247 )( + T3 199 ) ) )
(or ( <= ( + T3 209 )  ( + T4 247 ) ) ( <= ( + T4 337 )( + T3 203 ) ) )
(or ( <= ( + T3 263 )  ( + T4 337 ) ) ( <= ( + T4 433 )( + T3 209 ) ) )
(or ( <= ( + T3 339 )  ( + T4 433 ) ) ( <= ( + T4 459 )( + T3 263 ) ) )
(or ( <= ( + T3 88 ) T5 ) ( <= ( + T5 72 ) T3 ) )
(or ( <= ( + T3 179 )  ( + T5 72 ) ) ( <= ( + T5 136 )( + T3 88 ) ) )
(or ( <= ( + T3 189 )  ( + T5 136 ) ) ( <= ( + T5 180 )( + T3 179 ) ) )
(or ( <= ( + T3 199 )  ( + T5 180 ) ) ( <= ( + T5 221 )( + T3 189 ) ) )
(or ( <= ( + T3 203 )  ( + T5 221 ) ) ( <= ( + T5 240 )( + T3 199 ) ) )
(or ( <= ( + T3 209 )  ( + T5 240 ) ) ( <= ( + T5 288 )( + T3 203 ) ) )
(or ( <= ( + T3 263 )  ( + T5 288 ) ) ( <= ( + T5 289 )( + T3 209 ) ) )
(or ( <= ( + T3 339 )  ( + T5 289 ) ) ( <= ( + T5 300 )( + T3 263 ) ) )
(or ( <= ( + T3 88 ) T6 ) ( <= ( + T6 81 ) T3 ) )
(or ( <= ( + T3 179 )  ( + T6 81 ) ) ( <= ( + T6 82 )( + T3 88 ) ) )
(or ( <= ( + T3 189 )  ( + T6 82 ) ) ( <= ( + T6 131 )( + T3 179 ) ) )
(or ( <= ( + T3 199 )  ( + T6 131 ) ) ( <= ( + T6 215 )( + T3 189 ) ) )
(or ( <= ( + T3 203 )  ( + T6 215 ) ) ( <= ( + T6 291 )( + T3 199 ) ) )
(or ( <= ( + T3 209 )  ( + T6 291 ) ) ( <= ( + T6 385 )( + T3 203 ) ) )
(or ( <= ( + T3 263 )  ( + T6 385 ) ) ( <= ( + T6 444 )( + T3 209 ) ) )
(or ( <= ( + T3 339 )  ( + T6 444 ) ) ( <= ( + T6 508 )( + T3 263 ) ) )
(or ( <= ( + T3 88 ) T7 ) ( <= ( + T7 36 ) T3 ) )
(or ( <= ( + T3 179 )  ( + T7 36 ) ) ( <= ( + T7 105 )( + T3 88 ) ) )
(or ( <= ( + T3 189 )  ( + T7 105 ) ) ( <= ( + T7 178 )( + T3 179 ) ) )
(or ( <= ( + T3 199 )  ( + T7 178 ) ) ( <= ( + T7 217 )( + T3 189 ) ) )
(or ( <= ( + T3 203 )  ( + T7 217 ) ) ( <= ( + T7 243 )( + T3 199 ) ) )
(or ( <= ( + T3 209 )  ( + T7 243 ) ) ( <= ( + T7 321 )( + T3 203 ) ) )
(or ( <= ( + T3 263 )  ( + T7 321 ) ) ( <= ( + T7 388 )( + T3 209 ) ) )
(or ( <= ( + T3 339 )  ( + T7 388 ) ) ( <= ( + T7 415 )( + T3 263 ) ) )
(or ( <= ( + T3 88 ) T8 ) ( <= ( + T8 88 ) T3 ) )
(or ( <= ( + T3 179 )  ( + T8 88 ) ) ( <= ( + T8 101 )( + T3 88 ) ) )
(or ( <= ( + T3 189 )  ( + T8 101 ) ) ( <= ( + T8 148 )( + T3 179 ) ) )
(or ( <= ( + T3 199 )  ( + T8 148 ) ) ( <= ( + T8 205 )( + T3 189 ) ) )
(or ( <= ( + T3 203 )  ( + T8 205 ) ) ( <= ( + T8 207 )( + T3 199 ) ) )
(or ( <= ( + T3 209 )  ( + T8 207 ) ) ( <= ( + T8 301 )( + T3 203 ) ) )
(or ( <= ( + T3 263 )  ( + T8 301 ) ) ( <= ( + T8 335 )( + T3 209 ) ) )
(or ( <= ( + T3 339 )  ( + T8 335 ) ) ( <= ( + T8 360 )( + T3 263 ) ) )
(or ( <= ( + T3 88 ) T9 ) ( <= ( + T9 10 ) T3 ) )
(or ( <= ( + T3 179 )  ( + T9 10 ) ) ( <= ( + T9 40 )( + T3 88 ) ) )
(or ( <= ( + T3 189 )  ( + T9 40 ) ) ( <= ( + T9 106 )( + T3 179 ) ) )
(or ( <= ( + T3 199 )  ( + T9 106 ) ) ( <= ( + T9 186 )( + T3 189 ) ) )
(or ( <= ( + T3 203 )  ( + T9 186 ) ) ( <= ( + T9 263 )( + T3 199 ) ) )
(or ( <= ( + T3 209 )  ( + T9 263 ) ) ( <= ( + T9 329 )( + T3 203 ) ) )
(or ( <= ( + T3 263 )  ( + T9 329 ) ) ( <= ( + T9 371 )( + T3 209 ) ) )
(or ( <= ( + T3 339 )  ( + T9 371 ) ) ( <= ( + T9 380 )( + T3 263 ) ) )
(or ( <= ( + T3 88 ) T10 ) ( <= ( + T10 66 ) T3 ) )
(or ( <= ( + T3 179 )  ( + T10 66 ) ) ( <= ( + T10 157 )( + T3 88 ) ) )
(or ( <= ( + T3 189 )  ( + T10 157 ) ) ( <= ( + T10 249 )( + T3 179 ) ) )
(or ( <= ( + T3 199 )  ( + T10 249 ) ) ( <= ( + T10 343 )( + T3 189 ) ) )
(or ( <= ( + T3 203 )  ( + T10 343 ) ) ( <= ( + T10 427 )( + T3 199 ) ) )
(or ( <= ( + T3 209 )  ( + T10 427 ) ) ( <= ( + T10 430 )( + T3 203 ) ) )
(or ( <= ( + T3 263 )  ( + T10 430 ) ) ( <= ( + T10 439 )( + T3 209 ) ) )
(or ( <= ( + T3 339 )  ( + T10 439 ) ) ( <= ( + T10 459 )( + T3 263 ) ) )
(or ( <= ( + T4 50 ) T5 ) ( <= ( + T5 72 ) T4 ) )
(or ( <= ( + T4 61 )  ( + T5 72 ) ) ( <= ( + T5 136 )( + T4 50 ) ) )
(or ( <= ( + T4 156 )  ( + T5 136 ) ) ( <= ( + T5 180 )( + T4 61 ) ) )
(or ( <= ( + T4 177 )  ( + T5 180 ) ) ( <= ( + T5 221 )( + T4 156 ) ) )
(or ( <= ( + T4 247 )  ( + T5 221 ) ) ( <= ( + T5 240 )( + T4 177 ) ) )
(or ( <= ( + T4 337 )  ( + T5 240 ) ) ( <= ( + T5 288 )( + T4 247 ) ) )
(or ( <= ( + T4 433 )  ( + T5 288 ) ) ( <= ( + T5 289 )( + T4 337 ) ) )
(or ( <= ( + T4 459 )  ( + T5 289 ) ) ( <= ( + T5 300 )( + T4 433 ) ) )
(or ( <= ( + T4 50 ) T6 ) ( <= ( + T6 81 ) T4 ) )
(or ( <= ( + T4 61 )  ( + T6 81 ) ) ( <= ( + T6 82 )( + T4 50 ) ) )
(or ( <= ( + T4 156 )  ( + T6 82 ) ) ( <= ( + T6 131 )( + T4 61 ) ) )
(or ( <= ( + T4 177 )  ( + T6 131 ) ) ( <= ( + T6 215 )( + T4 156 ) ) )
(or ( <= ( + T4 247 )  ( + T6 215 ) ) ( <= ( + T6 291 )( + T4 177 ) ) )
(or ( <= ( + T4 337 )  ( + T6 291 ) ) ( <= ( + T6 385 )( + T4 247 ) ) )
(or ( <= ( + T4 433 )  ( + T6 385 ) ) ( <= ( + T6 444 )( + T4 337 ) ) )
(or ( <= ( + T4 459 )  ( + T6 444 ) ) ( <= ( + T6 508 )( + T4 433 ) ) )
(or ( <= ( + T4 50 ) T7 ) ( <= ( + T7 36 ) T4 ) )
(or ( <= ( + T4 61 )  ( + T7 36 ) ) ( <= ( + T7 105 )( + T4 50 ) ) )
(or ( <= ( + T4 156 )  ( + T7 105 ) ) ( <= ( + T7 178 )( + T4 61 ) ) )
(or ( <= ( + T4 177 )  ( + T7 178 ) ) ( <= ( + T7 217 )( + T4 156 ) ) )
(or ( <= ( + T4 247 )  ( + T7 217 ) ) ( <= ( + T7 243 )( + T4 177 ) ) )
(or ( <= ( + T4 337 )  ( + T7 243 ) ) ( <= ( + T7 321 )( + T4 247 ) ) )
(or ( <= ( + T4 433 )  ( + T7 321 ) ) ( <= ( + T7 388 )( + T4 337 ) ) )
(or ( <= ( + T4 459 )  ( + T7 388 ) ) ( <= ( + T7 415 )( + T4 433 ) ) )
(or ( <= ( + T4 50 ) T8 ) ( <= ( + T8 88 ) T4 ) )
(or ( <= ( + T4 61 )  ( + T8 88 ) ) ( <= ( + T8 101 )( + T4 50 ) ) )
(or ( <= ( + T4 156 )  ( + T8 101 ) ) ( <= ( + T8 148 )( + T4 61 ) ) )
(or ( <= ( + T4 177 )  ( + T8 148 ) ) ( <= ( + T8 205 )( + T4 156 ) ) )
(or ( <= ( + T4 247 )  ( + T8 205 ) ) ( <= ( + T8 207 )( + T4 177 ) ) )
(or ( <= ( + T4 337 )  ( + T8 207 ) ) ( <= ( + T8 301 )( + T4 247 ) ) )
(or ( <= ( + T4 433 )  ( + T8 301 ) ) ( <= ( + T8 335 )( + T4 337 ) ) )
(or ( <= ( + T4 459 )  ( + T8 335 ) ) ( <= ( + T8 360 )( + T4 433 ) ) )
(or ( <= ( + T4 50 ) T9 ) ( <= ( + T9 10 ) T4 ) )
(or ( <= ( + T4 61 )  ( + T9 10 ) ) ( <= ( + T9 40 )( + T4 50 ) ) )
(or ( <= ( + T4 156 )  ( + T9 40 ) ) ( <= ( + T9 106 )( + T4 61 ) ) )
(or ( <= ( + T4 177 )  ( + T9 106 ) ) ( <= ( + T9 186 )( + T4 156 ) ) )
(or ( <= ( + T4 247 )  ( + T9 186 ) ) ( <= ( + T9 263 )( + T4 177 ) ) )
(or ( <= ( + T4 337 )  ( + T9 263 ) ) ( <= ( + T9 329 )( + T4 247 ) ) )
(or ( <= ( + T4 433 )  ( + T9 329 ) ) ( <= ( + T9 371 )( + T4 337 ) ) )
(or ( <= ( + T4 459 )  ( + T9 371 ) ) ( <= ( + T9 380 )( + T4 433 ) ) )
(or ( <= ( + T4 50 ) T10 ) ( <= ( + T10 66 ) T4 ) )
(or ( <= ( + T4 61 )  ( + T10 66 ) ) ( <= ( + T10 157 )( + T4 50 ) ) )
(or ( <= ( + T4 156 )  ( + T10 157 ) ) ( <= ( + T10 249 )( + T4 61 ) ) )
(or ( <= ( + T4 177 )  ( + T10 249 ) ) ( <= ( + T10 343 )( + T4 156 ) ) )
(or ( <= ( + T4 247 )  ( + T10 343 ) ) ( <= ( + T10 427 )( + T4 177 ) ) )
(or ( <= ( + T4 337 )  ( + T10 427 ) ) ( <= ( + T10 430 )( + T4 247 ) ) )
(or ( <= ( + T4 433 )  ( + T10 430 ) ) ( <= ( + T10 439 )( + T4 337 ) ) )
(or ( <= ( + T4 459 )  ( + T10 439 ) ) ( <= ( + T10 459 )( + T4 433 ) ) )
(or ( <= ( + T5 72 ) T6 ) ( <= ( + T6 81 ) T5 ) )
(or ( <= ( + T5 136 )  ( + T6 81 ) ) ( <= ( + T6 82 )( + T5 72 ) ) )
(or ( <= ( + T5 180 )  ( + T6 82 ) ) ( <= ( + T6 131 )( + T5 136 ) ) )
(or ( <= ( + T5 221 )  ( + T6 131 ) ) ( <= ( + T6 215 )( + T5 180 ) ) )
(or ( <= ( + T5 240 )  ( + T6 215 ) ) ( <= ( + T6 291 )( + T5 221 ) ) )
(or ( <= ( + T5 288 )  ( + T6 291 ) ) ( <= ( + T6 385 )( + T5 240 ) ) )
(or ( <= ( + T5 289 )  ( + T6 385 ) ) ( <= ( + T6 444 )( + T5 288 ) ) )
(or ( <= ( + T5 300 )  ( + T6 444 ) ) ( <= ( + T6 508 )( + T5 289 ) ) )
(or ( <= ( + T5 72 ) T7 ) ( <= ( + T7 36 ) T5 ) )
(or ( <= ( + T5 136 )  ( + T7 36 ) ) ( <= ( + T7 105 )( + T5 72 ) ) )
(or ( <= ( + T5 180 )  ( + T7 105 ) ) ( <= ( + T7 178 )( + T5 136 ) ) )
(or ( <= ( + T5 221 )  ( + T7 178 ) ) ( <= ( + T7 217 )( + T5 180 ) ) )
(or ( <= ( + T5 240 )  ( + T7 217 ) ) ( <= ( + T7 243 )( + T5 221 ) ) )
(or ( <= ( + T5 288 )  ( + T7 243 ) ) ( <= ( + T7 321 )( + T5 240 ) ) )
(or ( <= ( + T5 289 )  ( + T7 321 ) ) ( <= ( + T7 388 )( + T5 288 ) ) )
(or ( <= ( + T5 300 )  ( + T7 388 ) ) ( <= ( + T7 415 )( + T5 289 ) ) )
(or ( <= ( + T5 72 ) T8 ) ( <= ( + T8 88 ) T5 ) )
(or ( <= ( + T5 136 )  ( + T8 88 ) ) ( <= ( + T8 101 )( + T5 72 ) ) )
(or ( <= ( + T5 180 )  ( + T8 101 ) ) ( <= ( + T8 148 )( + T5 136 ) ) )
(or ( <= ( + T5 221 )  ( + T8 148 ) ) ( <= ( + T8 205 )( + T5 180 ) ) )
(or ( <= ( + T5 240 )  ( + T8 205 ) ) ( <= ( + T8 207 )( + T5 221 ) ) )
(or ( <= ( + T5 288 )  ( + T8 207 ) ) ( <= ( + T8 301 )( + T5 240 ) ) )
(or ( <= ( + T5 289 )  ( + T8 301 ) ) ( <= ( + T8 335 )( + T5 288 ) ) )
(or ( <= ( + T5 300 )  ( + T8 335 ) ) ( <= ( + T8 360 )( + T5 289 ) ) )
(or ( <= ( + T5 72 ) T9 ) ( <= ( + T9 10 ) T5 ) )
(or ( <= ( + T5 136 )  ( + T9 10 ) ) ( <= ( + T9 40 )( + T5 72 ) ) )
(or ( <= ( + T5 180 )  ( + T9 40 ) ) ( <= ( + T9 106 )( + T5 136 ) ) )
(or ( <= ( + T5 221 )  ( + T9 106 ) ) ( <= ( + T9 186 )( + T5 180 ) ) )
(or ( <= ( + T5 240 )  ( + T9 186 ) ) ( <= ( + T9 263 )( + T5 221 ) ) )
(or ( <= ( + T5 288 )  ( + T9 263 ) ) ( <= ( + T9 329 )( + T5 240 ) ) )
(or ( <= ( + T5 289 )  ( + T9 329 ) ) ( <= ( + T9 371 )( + T5 288 ) ) )
(or ( <= ( + T5 300 )  ( + T9 371 ) ) ( <= ( + T9 380 )( + T5 289 ) ) )
(or ( <= ( + T5 72 ) T10 ) ( <= ( + T10 66 ) T5 ) )
(or ( <= ( + T5 136 )  ( + T10 66 ) ) ( <= ( + T10 157 )( + T5 72 ) ) )
(or ( <= ( + T5 180 )  ( + T10 157 ) ) ( <= ( + T10 249 )( + T5 136 ) ) )
(or ( <= ( + T5 221 )  ( + T10 249 ) ) ( <= ( + T10 343 )( + T5 180 ) ) )
(or ( <= ( + T5 240 )  ( + T10 343 ) ) ( <= ( + T10 427 )( + T5 221 ) ) )
(or ( <= ( + T5 288 )  ( + T10 427 ) ) ( <= ( + T10 430 )( + T5 240 ) ) )
(or ( <= ( + T5 289 )  ( + T10 430 ) ) ( <= ( + T10 439 )( + T5 288 ) ) )
(or ( <= ( + T5 300 )  ( + T10 439 ) ) ( <= ( + T10 459 )( + T5 289 ) ) )
(or ( <= ( + T6 81 ) T7 ) ( <= ( + T7 36 ) T6 ) )
(or ( <= ( + T6 82 )  ( + T7 36 ) ) ( <= ( + T7 105 )( + T6 81 ) ) )
(or ( <= ( + T6 131 )  ( + T7 105 ) ) ( <= ( + T7 178 )( + T6 82 ) ) )
(or ( <= ( + T6 215 )  ( + T7 178 ) ) ( <= ( + T7 217 )( + T6 131 ) ) )
(or ( <= ( + T6 291 )  ( + T7 217 ) ) ( <= ( + T7 243 )( + T6 215 ) ) )
(or ( <= ( + T6 385 )  ( + T7 243 ) ) ( <= ( + T7 321 )( + T6 291 ) ) )
(or ( <= ( + T6 444 )  ( + T7 321 ) ) ( <= ( + T7 388 )( + T6 385 ) ) )
(or ( <= ( + T6 508 )  ( + T7 388 ) ) ( <= ( + T7 415 )( + T6 444 ) ) )
(or ( <= ( + T6 81 ) T8 ) ( <= ( + T8 88 ) T6 ) )
(or ( <= ( + T6 82 )  ( + T8 88 ) ) ( <= ( + T8 101 )( + T6 81 ) ) )
(or ( <= ( + T6 131 )  ( + T8 101 ) ) ( <= ( + T8 148 )( + T6 82 ) ) )
(or ( <= ( + T6 215 )  ( + T8 148 ) ) ( <= ( + T8 205 )( + T6 131 ) ) )
(or ( <= ( + T6 291 )  ( + T8 205 ) ) ( <= ( + T8 207 )( + T6 215 ) ) )
(or ( <= ( + T6 385 )  ( + T8 207 ) ) ( <= ( + T8 301 )( + T6 291 ) ) )
(or ( <= ( + T6 444 )  ( + T8 301 ) ) ( <= ( + T8 335 )( + T6 385 ) ) )
(or ( <= ( + T6 508 )  ( + T8 335 ) ) ( <= ( + T8 360 )( + T6 444 ) ) )
(or ( <= ( + T6 81 ) T9 ) ( <= ( + T9 10 ) T6 ) )
(or ( <= ( + T6 82 )  ( + T9 10 ) ) ( <= ( + T9 40 )( + T6 81 ) ) )
(or ( <= ( + T6 131 )  ( + T9 40 ) ) ( <= ( + T9 106 )( + T6 82 ) ) )
(or ( <= ( + T6 215 )  ( + T9 106 ) ) ( <= ( + T9 186 )( + T6 131 ) ) )
(or ( <= ( + T6 291 )  ( + T9 186 ) ) ( <= ( + T9 263 )( + T6 215 ) ) )
(or ( <= ( + T6 385 )  ( + T9 263 ) ) ( <= ( + T9 329 )( + T6 291 ) ) )
(or ( <= ( + T6 444 )  ( + T9 329 ) ) ( <= ( + T9 371 )( + T6 385 ) ) )
(or ( <= ( + T6 508 )  ( + T9 371 ) ) ( <= ( + T9 380 )( + T6 444 ) ) )
(or ( <= ( + T6 81 ) T10 ) ( <= ( + T10 66 ) T6 ) )
(or ( <= ( + T6 82 )  ( + T10 66 ) ) ( <= ( + T10 157 )( + T6 81 ) ) )
(or ( <= ( + T6 131 )  ( + T10 157 ) ) ( <= ( + T10 249 )( + T6 82 ) ) )
(or ( <= ( + T6 215 )  ( + T10 249 ) ) ( <= ( + T10 343 )( + T6 131 ) ) )
(or ( <= ( + T6 291 )  ( + T10 343 ) ) ( <= ( + T10 427 )( + T6 215 ) ) )
(or ( <= ( + T6 385 )  ( + T10 427 ) ) ( <= ( + T10 430 )( + T6 291 ) ) )
(or ( <= ( + T6 444 )  ( + T10 430 ) ) ( <= ( + T10 439 )( + T6 385 ) ) )
(or ( <= ( + T6 508 )  ( + T10 439 ) ) ( <= ( + T10 459 )( + T6 444 ) ) )
(or ( <= ( + T7 36 ) T8 ) ( <= ( + T8 88 ) T7 ) )
(or ( <= ( + T7 105 )  ( + T8 88 ) ) ( <= ( + T8 101 )( + T7 36 ) ) )
(or ( <= ( + T7 178 )  ( + T8 101 ) ) ( <= ( + T8 148 )( + T7 105 ) ) )
(or ( <= ( + T7 217 )  ( + T8 148 ) ) ( <= ( + T8 205 )( + T7 178 ) ) )
(or ( <= ( + T7 243 )  ( + T8 205 ) ) ( <= ( + T8 207 )( + T7 217 ) ) )
(or ( <= ( + T7 321 )  ( + T8 207 ) ) ( <= ( + T8 301 )( + T7 243 ) ) )
(or ( <= ( + T7 388 )  ( + T8 301 ) ) ( <= ( + T8 335 )( + T7 321 ) ) )
(or ( <= ( + T7 415 )  ( + T8 335 ) ) ( <= ( + T8 360 )( + T7 388 ) ) )
(or ( <= ( + T7 36 ) T9 ) ( <= ( + T9 10 ) T7 ) )
(or ( <= ( + T7 105 )  ( + T9 10 ) ) ( <= ( + T9 40 )( + T7 36 ) ) )
(or ( <= ( + T7 178 )  ( + T9 40 ) ) ( <= ( + T9 106 )( + T7 105 ) ) )
(or ( <= ( + T7 217 )  ( + T9 106 ) ) ( <= ( + T9 186 )( + T7 178 ) ) )
(or ( <= ( + T7 243 )  ( + T9 186 ) ) ( <= ( + T9 263 )( + T7 217 ) ) )
(or ( <= ( + T7 321 )  ( + T9 263 ) ) ( <= ( + T9 329 )( + T7 243 ) ) )
(or ( <= ( + T7 388 )  ( + T9 329 ) ) ( <= ( + T9 371 )( + T7 321 ) ) )
(or ( <= ( + T7 415 )  ( + T9 371 ) ) ( <= ( + T9 380 )( + T7 388 ) ) )
(or ( <= ( + T7 36 ) T10 ) ( <= ( + T10 66 ) T7 ) )
(or ( <= ( + T7 105 )  ( + T10 66 ) ) ( <= ( + T10 157 )( + T7 36 ) ) )
(or ( <= ( + T7 178 )  ( + T10 157 ) ) ( <= ( + T10 249 )( + T7 105 ) ) )
(or ( <= ( + T7 217 )  ( + T10 249 ) ) ( <= ( + T10 343 )( + T7 178 ) ) )
(or ( <= ( + T7 243 )  ( + T10 343 ) ) ( <= ( + T10 427 )( + T7 217 ) ) )
(or ( <= ( + T7 321 )  ( + T10 427 ) ) ( <= ( + T10 430 )( + T7 243 ) ) )
(or ( <= ( + T7 388 )  ( + T10 430 ) ) ( <= ( + T10 439 )( + T7 321 ) ) )
(or ( <= ( + T7 415 )  ( + T10 439 ) ) ( <= ( + T10 459 )( + T7 388 ) ) )
(or ( <= ( + T8 88 ) T9 ) ( <= ( + T9 10 ) T8 ) )
(or ( <= ( + T8 101 )  ( + T9 10 ) ) ( <= ( + T9 40 )( + T8 88 ) ) )
(or ( <= ( + T8 148 )  ( + T9 40 ) ) ( <= ( + T9 106 )( + T8 101 ) ) )
(or ( <= ( + T8 205 )  ( + T9 106 ) ) ( <= ( + T9 186 )( + T8 148 ) ) )
(or ( <= ( + T8 207 )  ( + T9 186 ) ) ( <= ( + T9 263 )( + T8 205 ) ) )
(or ( <= ( + T8 301 )  ( + T9 263 ) ) ( <= ( + T9 329 )( + T8 207 ) ) )
(or ( <= ( + T8 335 )  ( + T9 329 ) ) ( <= ( + T9 371 )( + T8 301 ) ) )
(or ( <= ( + T8 360 )  ( + T9 371 ) ) ( <= ( + T9 380 )( + T8 335 ) ) )
(or ( <= ( + T8 88 ) T10 ) ( <= ( + T10 66 ) T8 ) )
(or ( <= ( + T8 101 )  ( + T10 66 ) ) ( <= ( + T10 157 )( + T8 88 ) ) )
(or ( <= ( + T8 148 )  ( + T10 157 ) ) ( <= ( + T10 249 )( + T8 101 ) ) )
(or ( <= ( + T8 205 )  ( + T10 249 ) ) ( <= ( + T10 343 )( + T8 148 ) ) )
(or ( <= ( + T8 207 )  ( + T10 343 ) ) ( <= ( + T10 427 )( + T8 205 ) ) )
(or ( <= ( + T8 301 )  ( + T10 427 ) ) ( <= ( + T10 430 )( + T8 207 ) ) )
(or ( <= ( + T8 335 )  ( + T10 430 ) ) ( <= ( + T10 439 )( + T8 301 ) ) )
(or ( <= ( + T8 360 )  ( + T10 439 ) ) ( <= ( + T10 459 )( + T8 335 ) ) )
(or ( <= ( + T9 10 ) T10 ) ( <= ( + T10 66 ) T9 ) )
(or ( <= ( + T9 40 )  ( + T10 66 ) ) ( <= ( + T10 157 )( + T9 10 ) ) )
(or ( <= ( + T9 106 )  ( + T10 157 ) ) ( <= ( + T10 249 )( + T9 40 ) ) )
(or ( <= ( + T9 186 )  ( + T10 249 ) ) ( <= ( + T10 343 )( + T9 106 ) ) )
(or ( <= ( + T9 263 )  ( + T10 343 ) ) ( <= ( + T10 427 )( + T9 186 ) ) )
(or ( <= ( + T9 329 )  ( + T10 427 ) ) ( <= ( + T10 430 )( + T9 263 ) ) )
(or ( <= ( + T9 371 )  ( + T10 430 ) ) ( <= ( + T10 439 )( + T9 329 ) ) )
(or ( <= ( + T9 380 )  ( + T10 439 ) ) ( <= ( + T10 459 )( + T9 371 ) ) )
( <= ( + T1 409 ) Z)
( <= ( + T2 412 ) Z)
( <= ( + T3 339 ) Z)
( <= ( + T4 459 ) Z)
( <= ( + T5 300 ) Z)
( <= ( + T6 508 ) Z)
( <= ( + T7 415 ) Z)
( <= ( + T8 360 ) Z)
( <= ( + T9 380 ) Z)
( <= ( + T10 459 ) Z)
( >= T1 0 )
( >= T2 0 )
( >= T3 0 )
( >= T4 0 )
( >= T5 0 )
( >= T6 0 )
( >= T7 0 )
( >= T8 0 )
( >= T9 0 )
( >= T10 0 )
) )
(minimize Z)
(check-sat)